; benchmark generated from python API
(set-info :status unknown)
(declare-fun strlen_72_64 () (_ BitVec 64))
(declare-fun args_0_8 () (_ BitVec 8))
(declare-fun strlen_75_64 () (_ BitVec 64))
(declare-fun args_1_8 () (_ BitVec 8))
(declare-fun sigaction_oldact_171_1216 () (_ BitVec 1216))
(declare-fun sigaction_oldact_175_1216 () (_ BitVec 1216))
(declare-fun sigaction_oldact_185_1216 () (_ BitVec 1216))
(declare-fun sigaction_oldact_201_1216 () (_ BitVec 1216))
(declare-fun sigaction_oldact_229_1216 () (_ BitVec 1216))
(declare-fun sigaction_oldact_292_1216 () (_ BitVec 1216))
(declare-fun sigaction_oldact_401_1216 () (_ BitVec 1216))
(declare-fun sigaction_oldact_607_1216 () (_ BitVec 1216))
(declare-fun sigaction_oldact_1071_1216 () (_ BitVec 1216))
(declare-fun sigaction_oldact_2033_1216 () (_ BitVec 1216))
(assert
 (let (($x351 (= (_ bv1 64) strlen_72_64)))
 (not $x351)))
(assert
 (let ((?x82 (bvadd (_ bv576460752303357824 64) strlen_72_64)))
 (let (($x69 (= (_ bv0 8) args_0_8)))
 (let ((?x46 (ite $x69 (_ bv576460752303357824 64) (_ bv576460752303357825 64))))
 (= ?x46 ?x82)))))
(assert
 (let (($x347 (= (_ bv0 8) args_1_8)))
 (let ((?x355 (ite $x347 (_ bv576460752303357826 64) (_ bv576460752303357827 64))))
 (let ((?x356 (bvsub ?x355 (_ bv576460752303357826 64))))
 (= ?x356 strlen_75_64)))))
(assert
 (let ((?x1831 ((_ extract 127 120) sigaction_oldact_171_1216)))
 (let ((?x2319 (bvand ?x1831 (_ bv4 8))))
 (= (_ bv0 8) ?x2319))))
(assert
 (let ((?x2264 ((_ extract 127 120) sigaction_oldact_175_1216)))
 (let ((?x2349 (bvand ?x2264 (_ bv4 8))))
 (and (distinct (_ bv0 8) ?x2349) true))))
(assert
 (let ((?x2741 ((_ extract 127 120) sigaction_oldact_185_1216)))
 (let ((?x2766 (bvand ?x2741 (_ bv4 8))))
 (and (distinct (_ bv0 8) ?x2766) true))))
(assert
 (let ((?x3722 ((_ extract 127 120) sigaction_oldact_201_1216)))
 (let ((?x3747 (bvand ?x3722 (_ bv4 8))))
 (= (_ bv0 8) ?x3747))))
(assert
 (let ((?x5561 ((_ extract 127 120) sigaction_oldact_229_1216)))
 (let ((?x5578 (bvand ?x5561 (_ bv4 8))))
 (and (distinct (_ bv0 8) ?x5578) true))))
(assert
 (let ((?x9712 ((_ extract 127 120) sigaction_oldact_292_1216)))
 (let ((?x9732 (bvand ?x9712 (_ bv4 8))))
 (= (_ bv0 8) ?x9732))))
(assert
 (let ((?x17152 ((_ extract 127 120) sigaction_oldact_401_1216)))
 (let ((?x17172 (bvand ?x17152 (_ bv4 8))))
 (= (_ bv0 8) ?x17172))))
(assert
 (let ((?x31981 ((_ extract 127 120) sigaction_oldact_607_1216)))
 (let ((?x31987 (bvand ?x31981 (_ bv4 8))))
 (and (distinct (_ bv0 8) ?x31987) true))))
(assert
 (let ((?x61440 ((_ extract 127 120) sigaction_oldact_1071_1216)))
 (let ((?x61458 (bvand ?x61440 (_ bv4 8))))
 (and (distinct (_ bv0 8) ?x61458) true))))
(assert
 (let ((?x78261 ((_ extract 127 120) sigaction_oldact_2033_1216)))
 (let ((?x116109 (bvand ?x78261 (_ bv4 8))))
 (= (_ bv0 8) ?x116109))))
(maximize sigaction_oldact_185_1216)
(maximize sigaction_oldact_607_1216)
(maximize args_1_8)
(minimize sigaction_oldact_292_1216)
(maximize sigaction_oldact_229_1216)
(maximize sigaction_oldact_201_1216)
(minimize sigaction_oldact_175_1216)
(minimize sigaction_oldact_607_1216)
(minimize strlen_72_64)
(minimize args_0_8)
(minimize sigaction_oldact_185_1216)
(maximize sigaction_oldact_292_1216)
(maximize strlen_75_64)
(minimize sigaction_oldact_401_1216)
(check-sat)
(get-objectives)
